N = 11;
H = 5;
T = 2;

avail = array3d(1..N, 1..H, 1..T, [2, 9, 3, 1, 10, 5, 4, 4, 5, 2, 4, 2, 5, 7, 3, 9, 9, 6, 0, 0, 4, 0, 5, 5, 6, 10, 2, 6, 0, 1, 0, 1, 9, 5, 2, 6, 8, 4, 3, 3, 10, 9, 10, 0, 6, 8, 1, 5, 4, 9, 1, 6, 10, 1, 5, 10, 5, 6, 0, 7, 7, 7, 2, 7, 8, 3, 0, 6, 4, 7, 8, 10, 3, 7, 10, 8, 0, 5, 0, 9, 3, 2, 10, 7, 9, 4, 10, 0, 8, 8, 4, 4, 8, 2, 0, 9, 7, 3, 6, 3, 4, 3, 5, 9, 6, 4, 1, 7, 5, 9]);

r = array2d(1..H, 1..T, [2, 2, 0, 3, 4, 1, 2, 5, 2, 4]);
